0
Node Left Objective IInf Best_Integer Best_Bound ItCnt Gap
0+ 0 nan nan 1364.7233 0.0000 nan 100.00%
0 0 707.7725 9 1364.7233 707.7725 13 48.14%
0+ 0 nan nan 1256.1229 707.7725 nan 43.65%
0+ 0 nan nan 1098.5732 707.7725 nan 35.57%
0 2 707.7725 9 1098.5732 707.7725 13 35.57%
CPXPARAM_MIP_Cuts_Disjunctive-LiftProj:Disjunctive 0
CPXPARAM_MIP_Cuts_Disjunctive-LiftProj:LiftProj 0
1
Node Left Objective IInf Best_Integer Best_Bound ItCnt Gap
0+ 0 nan nan 1364.7233 0.0000 nan 100.00%
0 0 0 707.7725 707.7725 13 0.00% 0
CPXPARAM_MIP_Cuts_Disjunctive-LiftProj:Disjunctive 0
CPXPARAM_MIP_Cuts_Disjunctive-LiftProj:LiftProj 0
2
Node Left Objective IInf Best_Integer Best_Bound ItCnt Gap
0+ 0 nan nan 1364.7233 0.0000 nan 100.00%
0 0 707.7725 9 1364.7233 707.7725 13 48.14%
0+ 0 nan nan 1256.1229 707.7725 nan 43.65%
0+ 0 nan nan 856.8252 707.7725 nan 17.40%
0 2 707.7725 9 856.8252 707.7725 13 17.40%
CPXPARAM_MIP_Cuts_Disjunctive-LiftProj:Disjunctive 0
CPXPARAM_MIP_Cuts_Disjunctive-LiftProj:LiftProj 0
3
Node Left Objective IInf Best_Integer Best_Bound ItCnt Gap
0+ 0 nan nan 1364.7233 0.0000 nan 100.00%
0 0 0 742.0876 742.0876 12 0.00% 0
CPXPARAM_MIP_Cuts_Disjunctive-LiftProj:Disjunctive 0
CPXPARAM_MIP_Cuts_Disjunctive-LiftProj:LiftProj 0
4
Node Left Objective IInf Best_Integer Best_Bound ItCnt Gap
0+ 0 nan nan 1151.9244 0.0000 nan 100.00%
0 0 804.5059 9 1151.9244 804.5059 12 30.16%
0+ 0 nan nan 1141.1136 804.5059 nan 29.50%
0+ 0 nan nan 943.7973 804.5059 nan 14.76%
0+ 0 nan nan 934.7700 804.5059 nan 13.94%
0 2 804.5059 9 934.7700 804.5059 12 13.94%
CPXPARAM_MIP_Cuts_Disjunctive-LiftProj:Disjunctive 0
CPXPARAM_MIP_Cuts_Disjunctive-LiftProj:LiftProj 0
5
Node Left Objective IInf Best_Integer Best_Bound ItCnt Gap
0+ 0 nan nan 1151.9244 0.0000 nan 100.00%
0 0 0 804.5059 804.5059 12 0.00% 0
CPXPARAM_MIP_Cuts_Disjunctive-LiftProj:Disjunctive 0
CPXPARAM_MIP_Cuts_Disjunctive-LiftProj:LiftProj 0
6
Node Left Objective IInf Best_Integer Best_Bound ItCnt Gap
0+ 0 nan nan 1151.9244 0.0000 nan 100.00%
0 0 804.5059 9 1151.9244 804.5059 12 30.16%
0+ 0 nan nan 1141.1136 804.5059 nan 29.50%
0+ 0 nan nan 1094.8343 804.5059 nan 26.52%
0+ 0 nan nan 1040.9320 804.5059 nan 22.71%
0 2 804.5059 9 1040.9320 804.5059 12 22.71%
CPXPARAM_MIP_Cuts_Disjunctive-LiftProj:Disjunctive 0
CPXPARAM_MIP_Cuts_Disjunctive-LiftProj:LiftProj 0
7
Node Left Objective IInf Best_Integer Best_Bound ItCnt Gap
0+ 0 nan nan 1151.9244 0.0000 nan 100.00%
0 0 0 804.5059 804.5059 12 0.00% 0
CPXPARAM_MIP_Cuts_Disjunctive-LiftProj:Disjunctive 0
CPXPARAM_MIP_Cuts_Disjunctive-LiftProj:LiftProj 0
8
Node Left Objective IInf Best_Integer Best_Bound ItCnt Gap
0+ 0 nan nan 1316.0374 0.0000 nan 100.00%
0 0 989.3200 9 1316.0374 989.3200 12 24.83%
0+ 0 nan nan 1297.4734 989.3200 nan 23.75%
0+ 0 nan nan 1148.2856 989.3200 nan 13.84%
0 2 989.3200 9 1148.2856 989.3200 12 13.84%
CPXPARAM_MIP_Cuts_Disjunctive-LiftProj:Disjunctive 0
CPXPARAM_MIP_Cuts_Disjunctive-LiftProj:LiftProj 0
9
Node Left Objective IInf Best_Integer Best_Bound ItCnt Gap
0+ 0 nan nan 1316.0374 0.0000 nan 100.00%
0 0 0 989.3200 989.3200 12 0.00% 0
CPXPARAM_MIP_Cuts_Disjunctive-LiftProj:Disjunctive 0
CPXPARAM_MIP_Cuts_Disjunctive-LiftProj:LiftProj 0
10
Node Left Objective IInf Best_Integer Best_Bound ItCnt Gap
0+ 0 nan nan 1316.0374 0.0000 nan 100.00%
0 0 989.3200 9 1316.0374 989.3200 12 24.83%
0+ 0 nan nan 1297.4734 989.3200 nan 23.75%
0+ 0 nan nan 1149.3259 989.3200 nan 13.92%
0 2 989.3200 9 1149.3259 989.3200 12 13.92%
CPXPARAM_MIP_Cuts_Disjunctive-LiftProj:Disjunctive 0
CPXPARAM_MIP_Cuts_Disjunctive-LiftProj:LiftProj 0
11
Node Left Objective IInf Best_Integer Best_Bound ItCnt Gap
0+ 0 nan nan 1316.0374 0.0000 nan 100.00%
0 0 0 989.3200 989.3200 12 0.00% 0
CPXPARAM_MIP_Cuts_Disjunctive-LiftProj:Disjunctive 0
CPXPARAM_MIP_Cuts_Disjunctive-LiftProj:LiftProj 0
12
Node Left Objective IInf Best_Integer Best_Bound ItCnt Gap
0+ 0 nan nan 1103.5671 0.0000 nan 100.00%
0 0 805.3814 9 1103.5671 805.3814 12 27.02%
0+ 0 nan nan 1023.1201 805.3814 nan 21.28%
0+ 0 nan nan 1002.2020 805.3814 nan 19.64%
0 2 805.3814 9 1002.2020 805.3814 12 19.64%
CPXPARAM_MIP_Cuts_Disjunctive-LiftProj:Disjunctive 0
CPXPARAM_MIP_Cuts_Disjunctive-LiftProj:LiftProj 0
13
Node Left Objective IInf Best_Integer Best_Bound ItCnt Gap
0+ 0 nan nan 1103.5671 0.0000 nan 100.00%
0 0 0 805.3814 805.3814 13 0.00% 0
CPXPARAM_MIP_Cuts_Disjunctive-LiftProj:Disjunctive 0
CPXPARAM_MIP_Cuts_Disjunctive-LiftProj:LiftProj 0
14
Node Left Objective IInf Best_Integer Best_Bound ItCnt Gap
0+ 0 nan nan 1103.5671 0.0000 nan 100.00%
0 0 805.3814 9 1103.5671 805.3814 13 27.02%
0+ 0 nan nan 1007.2655 805.3814 nan 20.04%
0+ 0 nan nan 1002.2020 805.3814 nan 19.64%
0 2 805.3814 9 1002.2020 805.3814 13 19.64%
CPXPARAM_MIP_Cuts_Disjunctive-LiftProj:Disjunctive 0
CPXPARAM_MIP_Cuts_Disjunctive-LiftProj:LiftProj 0
15
Node Left Objective IInf Best_Integer Best_Bound ItCnt Gap
0+ 0 nan nan 1103.5671 0.0000 nan 100.00%
0 0 0 805.3814 805.3814 13 0.00% 0
CPXPARAM_MIP_Cuts_Disjunctive-LiftProj:Disjunctive 0
CPXPARAM_MIP_Cuts_Disjunctive-LiftProj:LiftProj 0
16
Node Left Objective IInf Best_Integer Best_Bound ItCnt Gap
0+ 0 nan nan 1092.9842 0.0000 nan 100.00%
0 0 876.8822 9 1092.9842 876.8822 11 19.77%
0+ 0 nan nan 1089.1526 876.8822 nan 19.49%
0+ 0 nan nan 971.2909 876.8822 nan 9.72%
0 2 876.8822 8 971.2909 876.8822 11 9.72%
CPXPARAM_MIP_Cuts_Disjunctive-LiftProj:Disjunctive 0
CPXPARAM_MIP_Cuts_Disjunctive-LiftProj:LiftProj 0
17
Node Left Objective IInf Best_Integer Best_Bound ItCnt Gap
0+ 0 nan nan 1092.9842 0.0000 nan 100.00%
0 0 0 876.8822 876.8822 10 0.00% 0
CPXPARAM_MIP_Cuts_Disjunctive-LiftProj:Disjunctive 0
CPXPARAM_MIP_Cuts_Disjunctive-LiftProj:LiftProj 0
18
Node Left Objective IInf Best_Integer Best_Bound ItCnt Gap
0+ 0 nan nan 1092.9842 0.0000 nan 100.00%
0 0 876.8822 9 1092.9842 876.8822 11 19.77%
0+ 0 nan nan 1089.1526 876.8822 nan 19.49%
0+ 0 nan nan 970.3478 876.8822 nan 9.63%
0 2 876.8822 8 970.3478 876.8822 11 9.63%
CPXPARAM_MIP_Cuts_Disjunctive-LiftProj:Disjunctive 0
CPXPARAM_MIP_Cuts_Disjunctive-LiftProj:LiftProj 0
19
Node Left Objective IInf Best_Integer Best_Bound ItCnt Gap
0+ 0 nan nan 1092.9842 0.0000 nan 100.00%
0 0 0 876.8822 876.8822 10 0.00% 0
CPXPARAM_MIP_Cuts_Disjunctive-LiftProj:Disjunctive 0
CPXPARAM_MIP_Cuts_Disjunctive-LiftProj:LiftProj 0
20
Node Left Objective IInf Best_Integer Best_Bound ItCnt Gap
0+ 0 nan nan 933.7925 0.0000 nan 100.00%
0 0 586.9854 9 933.7925 586.9854 12 37.14%
0+ 0 nan nan 921.6569 586.9854 nan 36.31%
0+ 0 nan nan 677.4287 586.9854 nan 13.35%
0 2 586.9854 7 677.4287 586.9854 12 13.35%
CPXPARAM_MIP_Cuts_Disjunctive-LiftProj:Disjunctive 0
CPXPARAM_MIP_Cuts_Disjunctive-LiftProj:LiftProj 0
21
Node Left Objective IInf Best_Integer Best_Bound ItCnt Gap
0+ 0 nan nan 933.7925 0.0000 nan 100.00%
0 0 0 586.9854 586.9854 12 0.00% 0
CPXPARAM_MIP_Cuts_Disjunctive-LiftProj:Disjunctive 0
CPXPARAM_MIP_Cuts_Disjunctive-LiftProj:LiftProj 0
22
Node Left Objective IInf Best_Integer Best_Bound ItCnt Gap
0+ 0 nan nan 933.7925 0.0000 nan 100.00%
0 0 586.9854 9 933.7925 586.9854 12 37.14%
0+ 0 nan nan 921.6569 586.9854 nan 36.31%
0+ 0 nan nan 698.3933 586.9854 nan 15.95%
0 2 586.9854 7 698.3933 586.9854 12 15.95%
CPXPARAM_MIP_Cuts_Disjunctive-LiftProj:Disjunctive 0
CPXPARAM_MIP_Cuts_Disjunctive-LiftProj:LiftProj 0
23
Node Left Objective IInf Best_Integer Best_Bound ItCnt Gap
0+ 0 nan nan 933.7925 0.0000 nan 100.00%
0 0 0 588.1816 588.1816 12 0.00% 0
CPXPARAM_MIP_Cuts_Disjunctive-LiftProj:Disjunctive 0
CPXPARAM_MIP_Cuts_Disjunctive-LiftProj:LiftProj 0
24
Node Left Objective IInf Best_Integer Best_Bound ItCnt Gap
0+ 0 nan nan 945.0450 0.0000 nan 100.00%
0 0 691.3327 9 945.0450 691.3327 13 26.85%
0+ 0 nan nan 939.6644 691.3327 nan 26.43%
0+ 0 nan nan 835.6038 691.3327 nan 17.27%
0 2 691.3327 9 835.6038 691.3327 13 17.27%
CPXPARAM_MIP_Cuts_Disjunctive-LiftProj:Disjunctive 0
CPXPARAM_MIP_Cuts_Disjunctive-LiftProj:LiftProj 0
25
Node Left Objective IInf Best_Integer Best_Bound ItCnt Gap
0+ 0 nan nan 945.0450 0.0000 nan 100.00%
0 0 0 691.3327 691.3327 13 0.00% 0
CPXPARAM_MIP_Cuts_Disjunctive-LiftProj:Disjunctive 0
CPXPARAM_MIP_Cuts_Disjunctive-LiftProj:LiftProj 0
26
Node Left Objective IInf Best_Integer Best_Bound ItCnt Gap
0+ 0 nan nan 945.0450 0.0000 nan 100.00%
0 0 691.3794 8 945.0450 691.3794 14 26.84%
0+ 0 nan nan 938.3845 691.3794 nan 26.32%
0+ 0 nan nan 935.6367 691.3794 nan 26.11%
0+ 0 nan nan 835.2781 691.3794 nan 17.23%
0 2 691.3794 8 835.2781 691.3794 14 17.23%
CPXPARAM_MIP_Cuts_Disjunctive-LiftProj:Disjunctive 0
CPXPARAM_MIP_Cuts_Disjunctive-LiftProj:LiftProj 0
27
Node Left Objective IInf Best_Integer Best_Bound ItCnt Gap
0+ 0 nan nan 945.0450 0.0000 nan 100.00%
0 0 0 691.3327 691.3327 14 0.00% 0
CPXPARAM_MIP_Cuts_Disjunctive-LiftProj:Disjunctive 0
CPXPARAM_MIP_Cuts_Disjunctive-LiftProj:LiftProj 0
28
Node Left Objective IInf Best_Integer Best_Bound ItCnt Gap
0+ 0 nan nan 1337.0922 0.0000 nan 100.00%
0 0 1047.8755 8 1337.0922 1047.8755 13 21.63%
0+ 0 nan nan 1259.7351 1047.8755 nan 16.82%
0+ 0 nan nan 1141.0900 1047.8755 nan 8.17%
0 2 1047.8755 8 1141.0900 1047.8755 13 8.17%
CPXPARAM_MIP_Cuts_Disjunctive-LiftProj:Disjunctive 0
CPXPARAM_MIP_Cuts_Disjunctive-LiftProj:LiftProj 0
29
Node Left Objective IInf Best_Integer Best_Bound ItCnt Gap
0+ 0 nan nan 1337.0922 0.0000 nan 100.00%
0 0 0 1047.8755 1047.8755 12 0.00% 0
CPXPARAM_MIP_Cuts_Disjunctive-LiftProj:Disjunctive 0
CPXPARAM_MIP_Cuts_Disjunctive-LiftProj:LiftProj 0
30
Node Left Objective IInf Best_Integer Best_Bound ItCnt Gap
0+ 0 nan nan 1337.0922 0.0000 nan 100.00%
0 0 1047.8755 9 1337.0922 1047.8755 12 21.63%
0+ 0 nan nan 1316.0757 1047.8755 nan 20.38%
0+ 0 nan nan 1289.7187 1047.8755 nan 18.75%
0+ 0 nan nan 1271.6039 1047.8755 nan 17.59%
0 2 1047.8755 9 1271.6039 1047.8755 12 17.59%
CPXPARAM_MIP_Cuts_Disjunctive-LiftProj:Disjunctive 0
CPXPARAM_MIP_Cuts_Disjunctive-LiftProj:LiftProj 0
31
Node Left Objective IInf Best_Integer Best_Bound ItCnt Gap
0+ 0 nan nan 1337.0922 0.0000 nan 100.00%
0 0 0 1047.8755 1047.8755 12 0.00% 0
CPXPARAM_MIP_Cuts_Disjunctive-LiftProj:Disjunctive 0
CPXPARAM_MIP_Cuts_Disjunctive-LiftProj:LiftProj 0
32
Node Left Objective IInf Best_Integer Best_Bound ItCnt Gap
0+ 0 nan nan 1107.0587 0.0000 nan 100.00%
0 0 690.4898 9 1107.0587 690.4898 12 37.63%
0+ 0 nan nan 1030.0515 690.4898 nan 32.97%
0+ 0 nan nan 867.6344 690.4898 nan 20.42%
0 2 690.4898 9 867.6344 690.4898 12 20.42%
CPXPARAM_MIP_Cuts_Disjunctive-LiftProj:Disjunctive 0
CPXPARAM_MIP_Cuts_Disjunctive-LiftProj:LiftProj 0
33
Node Left Objective IInf Best_Integer Best_Bound ItCnt Gap
0+ 0 nan nan 1107.0587 0.0000 nan 100.00%
0 0 0 690.4898 690.4898 12 0.00% 0
CPXPARAM_MIP_Cuts_Disjunctive-LiftProj:Disjunctive 0
CPXPARAM_MIP_Cuts_Disjunctive-LiftProj:LiftProj 0
34
Node Left Objective IInf Best_Integer Best_Bound ItCnt Gap
0+ 0 nan nan 1107.0587 0.0000 nan 100.00%
0 0 690.4898 9 1107.0587 690.4898 12 37.63%
0+ 0 nan nan 1030.0515 690.4898 nan 32.97%
0+ 0 nan nan 917.8612 690.4898 nan 24.77%
0+ 0 nan nan 867.6344 690.4898 nan 20.42%
0 2 690.4898 9 867.6344 690.4898 12 20.42%
CPXPARAM_MIP_Cuts_Disjunctive-LiftProj:Disjunctive 0
CPXPARAM_MIP_Cuts_Disjunctive-LiftProj:LiftProj 0
35
Node Left Objective IInf Best_Integer Best_Bound ItCnt Gap
0+ 0 nan nan 1107.0587 0.0000 nan 100.00%
0 0 0 690.4898 690.4898 12 0.00% 0
CPXPARAM_MIP_Cuts_Disjunctive-LiftProj:Disjunctive 0
CPXPARAM_MIP_Cuts_Disjunctive-LiftProj:LiftProj 0
36
Node Left Objective IInf Best_Integer Best_Bound ItCnt Gap
0+ 0 nan nan 1237.1346 0.0000 nan 100.00%
0 0 813.3288 9 1237.1346 813.3288 13 34.26%
0+ 0 nan nan 1129.0032 813.3288 nan 27.96%
0+ 0 nan nan 923.2042 813.3288 nan 11.90%
0 2 813.3288 9 923.2042 813.3288 13 11.90%
CPXPARAM_MIP_Cuts_Disjunctive-LiftProj:Disjunctive 0
CPXPARAM_MIP_Cuts_Disjunctive-LiftProj:LiftProj 0
37
Node Left Objective IInf Best_Integer Best_Bound ItCnt Gap
0+ 0 nan nan 1237.1346 0.0000 nan 100.00%
0 0 0 813.3288 813.3288 12 0.00% 0
CPXPARAM_MIP_Cuts_Disjunctive-LiftProj:Disjunctive 0
CPXPARAM_MIP_Cuts_Disjunctive-LiftProj:LiftProj 0
38
Node Left Objective IInf Best_Integer Best_Bound ItCnt Gap
0+ 0 nan nan 1237.1346 0.0000 nan 100.00%
0 0 813.3288 9 1237.1346 813.3288 12 34.26%
0+ 0 nan nan 1129.0032 813.3288 nan 27.96%
0+ 0 nan nan 973.2548 813.3288 nan 16.43%
0 2 813.3288 9 973.2548 813.3288 12 16.43%
CPXPARAM_MIP_Cuts_Disjunctive-LiftProj:Disjunctive 0
CPXPARAM_MIP_Cuts_Disjunctive-LiftProj:LiftProj 0
39
Node Left Objective IInf Best_Integer Best_Bound ItCnt Gap
0+ 0 nan nan 1237.1346 0.0000 nan 100.00%
0 0 0 813.3288 813.3288 13 0.00% 0
CPXPARAM_MIP_Cuts_Disjunctive-LiftProj:Disjunctive 0
CPXPARAM_MIP_Cuts_Disjunctive-LiftProj:LiftProj 0
